# SCIP version 7.0.0.2

# should only solutions be checked which improve the primal bound
# [type: bool, advanced: FALSE, range: {TRUE,FALSE}, default: FALSE]
misc/improvingsols = TRUE

# should the problem be solved exactly (with proven dual bounds)? (Only possible if no problem has been read in yet)
# [type: bool, advanced: FALSE, range: {TRUE,FALSE}, default: FALSE]
exact/enabled = TRUE